p cnf 220 320
39 40 1 61 0
39 40 1 -61 0
-39 -40 1 62 0
-39 -40 1 -62 0
39 -40 -1 63 0
39 -40 -1 -63 0
-39 40 -1 64 0
-39 40 -1 -64 0
1 41 2 65 0
1 41 2 -65 0
-1 -41 2 66 0
-1 -41 2 -66 0
1 -41 -2 67 0
1 -41 -2 -67 0
-1 41 -2 68 0
-1 41 -2 -68 0
2 42 3 69 0
2 42 3 -69 0
-2 -42 3 70 0
-2 -42 3 -70 0
2 -42 -3 71 0
2 -42 -3 -71 0
-2 42 -3 72 0
-2 42 -3 -72 0
3 43 4 73 0
3 43 4 -73 0
-3 -43 4 74 0
-3 -43 4 -74 0
3 -43 -4 75 0
3 -43 -4 -75 0
-3 43 -4 76 0
-3 43 -4 -76 0
4 44 5 77 0
4 44 5 -77 0
-4 -44 5 78 0
-4 -44 5 -78 0
4 -44 -5 79 0
4 -44 -5 -79 0
-4 44 -5 80 0
-4 44 -5 -80 0
5 45 6 81 0
5 45 6 -81 0
-5 -45 6 82 0
-5 -45 6 -82 0
5 -45 -6 83 0
5 -45 -6 -83 0
-5 45 -6 84 0
-5 45 -6 -84 0
6 46 7 85 0
6 46 7 -85 0
-6 -46 7 86 0
-6 -46 7 -86 0
6 -46 -7 87 0
6 -46 -7 -87 0
-6 46 -7 88 0
-6 46 -7 -88 0
7 47 8 89 0
7 47 8 -89 0
-7 -47 8 90 0
-7 -47 8 -90 0
7 -47 -8 91 0
7 -47 -8 -91 0
-7 47 -8 92 0
-7 47 -8 -92 0
8 48 9 93 0
8 48 9 -93 0
-8 -48 9 94 0
-8 -48 9 -94 0
8 -48 -9 95 0
8 -48 -9 -95 0
-8 48 -9 96 0
-8 48 -9 -96 0
9 49 10 97 0
9 49 10 -97 0
-9 -49 10 98 0
-9 -49 10 -98 0
9 -49 -10 99 0
9 -49 -10 -99 0
-9 49 -10 100 0
-9 49 -10 -100 0
10 50 11 101 0
10 50 11 -101 0
-10 -50 11 102 0
-10 -50 11 -102 0
10 -50 -11 103 0
10 -50 -11 -103 0
-10 50 -11 104 0
-10 50 -11 -104 0
11 51 12 105 0
11 51 12 -105 0
-11 -51 12 106 0
-11 -51 12 -106 0
11 -51 -12 107 0
11 -51 -12 -107 0
-11 51 -12 108 0
-11 51 -12 -108 0
12 52 13 109 0
12 52 13 -109 0
-12 -52 13 110 0
-12 -52 13 -110 0
12 -52 -13 111 0
12 -52 -13 -111 0
-12 52 -13 112 0
-12 52 -13 -112 0
13 53 14 113 0
13 53 14 -113 0
-13 -53 14 114 0
-13 -53 14 -114 0
13 -53 -14 115 0
13 -53 -14 -115 0
-13 53 -14 116 0
-13 53 -14 -116 0
14 54 15 117 0
14 54 15 -117 0
-14 -54 15 118 0
-14 -54 15 -118 0
14 -54 -15 119 0
14 -54 -15 -119 0
-14 54 -15 120 0
-14 54 -15 -120 0
15 55 16 121 0
15 55 16 -121 0
-15 -55 16 122 0
-15 -55 16 -122 0
15 -55 -16 123 0
15 -55 -16 -123 0
-15 55 -16 124 0
-15 55 -16 -124 0
16 56 17 125 0
16 56 17 -125 0
-16 -56 17 126 0
-16 -56 17 -126 0
16 -56 -17 127 0
16 -56 -17 -127 0
-16 56 -17 128 0
-16 56 -17 -128 0
17 57 18 129 0
17 57 18 -129 0
-17 -57 18 130 0
-17 -57 18 -130 0
17 -57 -18 131 0
17 -57 -18 -131 0
-17 57 -18 132 0
-17 57 -18 -132 0
18 58 19 133 0
18 58 19 -133 0
-18 -58 19 134 0
-18 -58 19 -134 0
18 -58 -19 135 0
18 -58 -19 -135 0
-18 58 -19 136 0
-18 58 -19 -136 0
19 59 60 137 0
19 59 60 -137 0
-19 -59 60 138 0
-19 -59 60 -138 0
19 -59 -60 139 0
19 -59 -60 -139 0
-19 59 -60 140 0
-19 59 -60 -140 0
20 59 60 141 0
20 59 60 -141 0
-20 -59 60 142 0
-20 -59 60 -142 0
20 -59 -60 143 0
20 -59 -60 -143 0
-20 59 -60 144 0
-20 59 -60 -144 0
21 58 20 145 0
21 58 20 -145 0
-21 -58 20 146 0
-21 -58 20 -146 0
21 -58 -20 147 0
21 -58 -20 -147 0
-21 58 -20 148 0
-21 58 -20 -148 0
22 57 21 149 0
22 57 21 -149 0
-22 -57 21 150 0
-22 -57 21 -150 0
22 -57 -21 151 0
22 -57 -21 -151 0
-22 57 -21 152 0
-22 57 -21 -152 0
23 56 22 153 0
23 56 22 -153 0
-23 -56 22 154 0
-23 -56 22 -154 0
23 -56 -22 155 0
23 -56 -22 -155 0
-23 56 -22 156 0
-23 56 -22 -156 0
24 55 23 157 0
24 55 23 -157 0
-24 -55 23 158 0
-24 -55 23 -158 0
24 -55 -23 159 0
24 -55 -23 -159 0
-24 55 -23 160 0
-24 55 -23 -160 0
25 54 24 161 0
25 54 24 -161 0
-25 -54 24 162 0
-25 -54 24 -162 0
25 -54 -24 163 0
25 -54 -24 -163 0
-25 54 -24 164 0
-25 54 -24 -164 0
26 53 25 165 0
26 53 25 -165 0
-26 -53 25 166 0
-26 -53 25 -166 0
26 -53 -25 167 0
26 -53 -25 -167 0
-26 53 -25 168 0
-26 53 -25 -168 0
27 52 26 169 0
27 52 26 -169 0
-27 -52 26 170 0
-27 -52 26 -170 0
27 -52 -26 171 0
27 -52 -26 -171 0
-27 52 -26 172 0
-27 52 -26 -172 0
28 51 27 173 0
28 51 27 -173 0
-28 -51 27 174 0
-28 -51 27 -174 0
28 -51 -27 175 0
28 -51 -27 -175 0
-28 51 -27 176 0
-28 51 -27 -176 0
29 50 28 177 0
29 50 28 -177 0
-29 -50 28 178 0
-29 -50 28 -178 0
29 -50 -28 179 0
29 -50 -28 -179 0
-29 50 -28 180 0
-29 50 -28 -180 0
30 49 29 181 0
30 49 29 -181 0
-30 -49 29 182 0
-30 -49 29 -182 0
30 -49 -29 183 0
30 -49 -29 -183 0
-30 49 -29 184 0
-30 49 -29 -184 0
31 48 30 185 0
31 48 30 -185 0
-31 -48 30 186 0
-31 -48 30 -186 0
31 -48 -30 187 0
31 -48 -30 -187 0
-31 48 -30 188 0
-31 48 -30 -188 0
32 47 31 189 0
32 47 31 -189 0
-32 -47 31 190 0
-32 -47 31 -190 0
32 -47 -31 191 0
32 -47 -31 -191 0
-32 47 -31 192 0
-32 47 -31 -192 0
33 46 32 193 0
33 46 32 -193 0
-33 -46 32 194 0
-33 -46 32 -194 0
33 -46 -32 195 0
33 -46 -32 -195 0
-33 46 -32 196 0
-33 46 -32 -196 0
34 45 33 197 0
34 45 33 -197 0
-34 -45 33 198 0
-34 -45 33 -198 0
34 -45 -33 199 0
34 -45 -33 -199 0
-34 45 -33 200 0
-34 45 -33 -200 0
35 44 34 201 0
35 44 34 -201 0
-35 -44 34 202 0
-35 -44 34 -202 0
35 -44 -34 203 0
35 -44 -34 -203 0
-35 44 -34 204 0
-35 44 -34 -204 0
36 43 35 205 0
36 43 35 -205 0
-36 -43 35 206 0
-36 -43 35 -206 0
36 -43 -35 207 0
36 -43 -35 -207 0
-36 43 -35 208 0
-36 43 -35 -208 0
37 42 36 209 0
37 42 36 -209 0
-37 -42 36 210 0
-37 -42 36 -210 0
37 -42 -36 211 0
37 -42 -36 -211 0
-37 42 -36 212 0
-37 42 -36 -212 0
38 41 37 213 0
38 41 37 -213 0
-38 -41 37 214 0
-38 -41 37 -214 0
38 -41 -37 215 0
38 -41 -37 -215 0
-38 41 -37 216 0
-38 41 -37 -216 0
39 40 -38 217 0
39 40 -38 -217 0
-39 -40 -38 218 0
-39 -40 -38 -218 0
39 -40 38 219 0
39 -40 38 -219 0
-39 40 38 220 0
-39 40 38 -220 0
